File : Instances/p69
Used 69s
27429

1 0 0 0 1 0 0 1 0 1 0 1 0 0 0 0 1 0 0 1 1 0 0 1 0 0 0 1 1 0 
7 19 16 27 0 11 16 27 27 28 4 28 20 23 28 7 23 20 27 0 27 16 23 27 20 27 27 28 4 16 19 19 4 16 27 19 20 9 27 16 7 9 19 4 9 19 20 16 19 19 0 16 27 16 9 19 11 9 27 7 4 0 7 20 9 11 0 19 28 11 7 11 19 9 23 23 20 23 9 16 23 0 9 7 4 20 19 0 27 7 28 19 7 11 0 20 11 11 0 28 28 16 11 7 4 0 4 27 27 20 19 4 27 11 11 9 28 7 0 9 9 11 28 19 9 16 0 11 19 0 28 16 11 20 23 9 9 9 28 20 11 27 11 11 11 23 16 16 27 7 27 28 23 0 20 11 0 16 20 20 23 27 20 0 23 27 23 4 20 16 23 20 19 9 4 0 0 20 4 20 0 16 16 19 11 9 11 23 0 16 0 16 19 4 7 11 7 16 20 19 
